NAME : mtspf.pid4541.gtsp
TYPE : ATSP
DIMENSION : 45
EDGE_WEIGHT_TYPE : EXPLICIT
EDGE_WEIGHT_FORMAT : FULL_MATRIX
EDGE_WEIGHT_SECTION
999999 5368709 5368709 5368709 5368709 5368723 5368724 5368725 5368724 5368734 5368735 5368736 5368735 5368730 5368731 5368732 5368731 5368721 5368722 5368723 5368722 5368719 5368720 5368721 5368720 5368718 5368719 5368720 5368719 5368737 5368738 5368737 5368736 5368730 5368731 5368732 5368731 5368718 5368719 5368720 5368719 5368742 5368743 5368744 5368743 
5368709 999999 5368709 5368709 5368709 5368729 5368728 5368729 5368730 5368746 5368745 5368746 5368747 5368754 5368753 5368754 5368755 5368747 5368746 5368747 5368748 5368745 5368744 5368745 5368746 5368744 5368743 5368744 5368745 5368717 5368718 5368719 5368718 5368728 5368727 5368728 5368729 5368740 5368739 5368740 5368741 5368742 5368741 5368742 5368743 
5368709 5368709 999999 5368709 5368709 5368734 5368735 5368734 5368733 5368717 5368716 5368715 5368716 5368721 5368720 5368721 5368722 5368734 5368733 5368734 5368735 5368736 5368735 5368736 5368737 5368735 5368734 5368735 5368736 5368752 5368753 5368752 5368751 5368735 5368736 5368735 5368734 5368733 5368732 5368733 5368734 5368721 5368722 5368721 5368720 
5368709 5368709 5368709 999999 5368709 5368739 5368738 5368737 5368738 5368726 5368727 5368726 5368725 5368722 5368723 5368722 5368721 5368721 5368720 5368719 5368720 5368723 5368722 5368721 5368722 5368724 5368723 5368722 5368723 5368757 5368756 5368755 5368756 5368740 5368739 5368738 5368739 5368728 5368727 5368726 5368727 5368734 5368735 5368734 5368733 
5368709 5368709 5368709 5368709 999999 5368726 5368725 5368726 5368727 5368741 5368742 5368743 5368742 5368749 5368750 5368751 5368750 5368742 5368743 5368744 5368743 5368740 5368741 5368742 5368741 5368739 5368740 5368741 5368740 5368720 5368719 5368720 5368721 5368723 5368724 5368725 5368724 5368735 5368736 5368737 5368736 5368737 5368738 5368739 5368738 
5368709 5368709 5368709 5368709 5368709 999999 0 10737418 10737418 5368727 5368728 5368729 5368728 5368735 5368736 5368737 5368736 5368728 5368729 5368730 5368729 5368726 5368727 5368728 5368727 5368725 5368726 5368727 5368726 5368730 5368731 5368730 5368729 5368719 5368720 5368719 5368718 5368721 5368722 5368723 5368722 5368731 5368732 5368731 5368730 
5368709 5368709 5368709 5368709 5368709 10737418 999999 0 10737418 5368728 5368729 5368730 5368729 5368736 5368737 5368738 5368737 5368729 5368730 5368731 5368730 5368727 5368728 5368729 5368728 5368726 5368727 5368728 5368727 5368729 5368730 5368729 5368728 5368718 5368719 5368720 5368719 5368722 5368723 5368724 5368723 5368730 5368731 5368732 5368731 
5368709 5368709 5368709 5368709 5368709 10737418 10737418 999999 0 5368729 5368728 5368729 5368730 5368737 5368736 5368737 5368738 5368730 5368729 5368730 5368731 5368728 5368727 5368728 5368729 5368727 5368726 5368727 5368728 5368730 5368729 5368728 5368729 5368717 5368718 5368719 5368718 5368723 5368722 5368723 5368724 5368729 5368730 5368731 5368730 
5368709 5368709 5368709 5368709 5368709 0 10737418 10737418 999999 5368728 5368727 5368728 5368729 5368736 5368735 5368736 5368737 5368729 5368728 5368729 5368730 5368727 5368726 5368727 5368728 5368726 5368725 5368726 5368727 5368731 5368730 5368729 5368730 5368718 5368719 5368718 5368717 5368722 5368721 5368722 5368723 5368730 5368731 5368730 5368729 
5368709 5368709 5368709 5368709 5368709 5368729 5368730 5368729 5368728 999999 0 10737418 10737418 5368718 5368719 5368720 5368719 5368729 5368728 5368727 5368728 5368731 5368730 5368729 5368730 5368730 5368729 5368728 5368729 5368747 5368748 5368747 5368746 5368730 5368731 5368730 5368729 5368728 5368727 5368726 5368727 5368720 5368721 5368720 5368719 
5368709 5368709 5368709 5368709 5368709 5368728 5368729 5368728 5368727 10737418 999999 0 10737418 5368719 5368720 5368721 5368720 5368728 5368727 5368728 5368729 5368730 5368729 5368730 5368731 5368729 5368728 5368729 5368730 5368746 5368747 5368746 5368745 5368729 5368730 5368729 5368728 5368727 5368726 5368727 5368728 5368719 5368720 5368721 5368720 
5368709 5368709 5368709 5368709 5368709 5368729 5368728 5368727 5368728 10737418 10737418 999999 0 5368720 5368719 5368720 5368721 5368729 5368728 5368729 5368730 5368731 5368730 5368731 5368732 5368730 5368729 5368730 5368731 5368747 5368746 5368745 5368746 5368730 5368729 5368728 5368729 5368728 5368727 5368728 5368729 5368718 5368719 5368720 5368719 
5368709 5368709 5368709 5368709 5368709 5368730 5368729 5368728 5368729 0 10737418 10737418 999999 5368719 5368718 5368719 5368720 5368730 5368729 5368728 5368729 5368732 5368731 5368730 5368731 5368731 5368730 5368729 5368730 5368748 5368747 5368746 5368747 5368731 5368730 5368729 5368730 5368729 5368728 5368727 5368728 5368719 5368720 5368719 5368718 
5368709 5368709 5368709 5368709 5368709 5368737 5368738 5368737 5368736 5368720 5368721 5368720 5368719 999999 0 10737418 10737418 5368725 5368724 5368723 5368724 5368727 5368726 5368725 5368726 5368726 5368725 5368724 5368725 5368755 5368756 5368755 5368754 5368738 5368739 5368738 5368737 5368726 5368727 5368726 5368725 5368724 5368725 5368724 5368723 
5368709 5368709 5368709 5368709 5368709 5368736 5368737 5368736 5368735 5368719 5368720 5368719 5368718 10737418 999999 0 10737418 5368724 5368723 5368724 5368725 5368726 5368725 5368726 5368727 5368725 5368724 5368725 5368726 5368754 5368755 5368754 5368753 5368737 5368738 5368737 5368736 5368725 5368726 5368725 5368724 5368723 5368724 5368723 5368722 
5368709 5368709 5368709 5368709 5368709 5368737 5368736 5368735 5368736 5368720 5368719 5368718 5368719 10737418 10737418 999999 0 5368725 5368724 5368725 5368726 5368727 5368726 5368727 5368728 5368726 5368725 5368726 5368727 5368755 5368754 5368753 5368754 5368738 5368737 5368736 5368737 5368726 5368725 5368724 5368725 5368722 5368723 5368722 5368721 
5368709 5368709 5368709 5368709 5368709 5368738 5368737 5368736 5368737 5368721 5368720 5368719 5368720 0 10737418 10737418 999999 5368726 5368725 5368724 5368725 5368728 5368727 5368726 5368727 5368727 5368726 5368725 5368726 5368756 5368755 5368754 5368755 5368739 5368738 5368737 5368738 5368727 5368726 5368725 5368726 5368723 5368724 5368723 5368722 
5368709 5368709 5368709 5368709 5368709 5368730 5368731 5368730 5368729 5368729 5368730 5368729 5368728 5368725 5368726 5368725 5368724 999999 0 10737418 10737418 5368714 5368713 5368712 5368713 5368715 5368716 5368715 5368714 5368748 5368749 5368748 5368747 5368731 5368732 5368731 5368730 5368719 5368720 5368719 5368718 5368737 5368738 5368737 5368736 
5368709 5368709 5368709 5368709 5368709 5368729 5368730 5368729 5368728 5368728 5368729 5368730 5368729 5368724 5368725 5368726 5368725 10737418 999999 0 10737418 5368713 5368712 5368711 5368712 5368714 5368715 5368714 5368713 5368747 5368748 5368747 5368746 5368730 5368731 5368730 5368729 5368718 5368719 5368718 5368717 5368736 5368737 5368738 5368737 
5368709 5368709 5368709 5368709 5368709 5368730 5368729 5368728 5368729 5368727 5368728 5368729 5368728 5368723 5368724 5368725 5368724 10737418 10737418 999999 0 5368714 5368713 5368712 5368713 5368715 5368714 5368713 5368714 5368748 5368747 5368746 5368747 5368731 5368730 5368729 5368730 5368719 5368718 5368717 5368718 5368735 5368736 5368737 5368736 
5368709 5368709 5368709 5368709 5368709 5368731 5368730 5368729 5368730 5368728 5368729 5368728 5368727 5368724 5368725 5368724 5368723 0 10737418 10737418 999999 5368715 5368714 5368713 5368714 5368716 5368715 5368714 5368715 5368749 5368748 5368747 5368748 5368732 5368731 5368730 5368731 5368720 5368719 5368718 5368719 5368736 5368737 5368736 5368735 
5368709 5368709 5368709 5368709 5368709 5368728 5368729 5368728 5368727 5368731 5368732 5368731 5368730 5368727 5368728 5368727 5368726 5368712 5368713 5368714 5368713 999999 0 10737418 10737418 5368713 5368714 5368713 5368712 5368746 5368747 5368746 5368745 5368729 5368730 5368729 5368728 5368717 5368718 5368717 5368716 5368739 5368740 5368739 5368738 
5368709 5368709 5368709 5368709 5368709 5368727 5368728 5368727 5368726 5368730 5368731 5368732 5368731 5368726 5368727 5368728 5368727 5368713 5368714 5368715 5368714 10737418 999999 0 10737418 5368712 5368713 5368712 5368711 5368745 5368746 5368745 5368744 5368728 5368729 5368728 5368727 5368716 5368717 5368716 5368715 5368738 5368739 5368740 5368739 
5368709 5368709 5368709 5368709 5368709 5368728 5368727 5368726 5368727 5368729 5368730 5368731 5368730 5368725 5368726 5368727 5368726 5368712 5368713 5368714 5368713 10737418 10737418 999999 0 5368711 5368712 5368711 5368710 5368746 5368745 5368744 5368745 5368729 5368728 5368727 5368728 5368717 5368716 5368715 5368716 5368737 5368738 5368739 5368738 
5368709 5368709 5368709 5368709 5368709 5368729 5368728 5368727 5368728 5368730 5368731 5368730 5368729 5368726 5368727 5368726 5368725 5368711 5368712 5368713 5368712 0 10737418 10737418 999999 5368712 5368713 5368712 5368711 5368747 5368746 5368745 5368746 5368730 5368729 5368728 5368729 5368718 5368717 5368716 5368717 5368738 5368739 5368738 5368737 
5368709 5368709 5368709 5368709 5368709 5368727 5368728 5368727 5368726 5368730 5368731 5368730 5368729 5368726 5368727 5368726 5368725 5368713 5368714 5368715 5368714 5368711 5368710 5368711 5368712 999999 0 10737418 10737418 5368745 5368746 5368745 5368744 5368728 5368729 5368728 5368727 5368716 5368717 5368716 5368715 5368738 5368739 5368738 5368737 
5368709 5368709 5368709 5368709 5368709 5368726 5368727 5368726 5368725 5368729 5368730 5368731 5368730 5368725 5368726 5368727 5368726 5368714 5368715 5368716 5368715 5368712 5368711 5368712 5368713 10737418 999999 0 10737418 5368744 5368745 5368744 5368743 5368727 5368728 5368727 5368726 5368715 5368716 5368715 5368714 5368737 5368738 5368739 5368738 
5368709 5368709 5368709 5368709 5368709 5368727 5368726 5368725 5368726 5368728 5368729 5368730 5368729 5368724 5368725 5368726 5368725 5368715 5368714 5368715 5368716 5368713 5368712 5368713 5368714 10737418 10737418 999999 0 5368745 5368744 5368743 5368744 5368728 5368727 5368726 5368727 5368716 5368715 5368714 5368715 5368736 5368737 5368738 5368737 
5368709 5368709 5368709 5368709 5368709 5368728 5368727 5368726 5368727 5368729 5368730 5368729 5368728 5368725 5368726 5368725 5368724 5368714 5368713 5368714 5368715 5368712 5368711 5368712 5368713 0 10737418 10737418 999999 5368746 5368745 5368744 5368745 5368729 5368728 5368727 5368728 5368717 5368716 5368715 5368716 5368737 5368738 5368737 5368736 
5368709 5368709 5368709 5368709 5368709 5368728 5368729 5368730 5368729 5368745 5368746 5368747 5368746 5368753 5368754 5368755 5368754 5368746 5368747 5368748 5368747 5368744 5368745 5368746 5368745 5368743 5368744 5368745 5368744 999999 0 10737418 10737418 5368727 5368728 5368729 5368728 5368739 5368740 5368741 5368740 5368741 5368742 5368743 5368742 
5368709 5368709 5368709 5368709 5368709 5368729 5368730 5368731 5368730 5368746 5368747 5368748 5368747 5368754 5368755 5368756 5368755 5368747 5368748 5368749 5368748 5368745 5368746 5368747 5368746 5368744 5368745 5368746 5368745 10737418 999999 0 10737418 5368728 5368729 5368730 5368729 5368740 5368741 5368742 5368741 5368742 5368743 5368744 5368743 
5368709 5368709 5368709 5368709 5368709 5368730 5368729 5368730 5368731 5368747 5368746 5368747 5368748 5368755 5368754 5368755 5368756 5368748 5368747 5368748 5368749 5368746 5368745 5368746 5368747 5368745 5368744 5368745 5368746 10737418 10737418 999999 0 5368729 5368728 5368729 5368730 5368741 5368740 5368741 5368742 5368743 5368742 5368743 5368744 
5368709 5368709 5368709 5368709 5368709 5368729 5368728 5368729 5368730 5368746 5368745 5368746 5368747 5368754 5368753 5368754 5368755 5368747 5368746 5368747 5368748 5368745 5368744 5368745 5368746 5368744 5368743 5368744 5368745 0 10737418 10737418 999999 5368728 5368727 5368728 5368729 5368740 5368739 5368740 5368741 5368742 5368741 5368742 5368743 
5368709 5368709 5368709 5368709 5368709 5368719 5368718 5368717 5368718 5368728 5368729 5368730 5368729 5368736 5368737 5368738 5368737 5368729 5368730 5368731 5368730 5368727 5368728 5368729 5368728 5368726 5368727 5368728 5368727 5368729 5368730 5368729 5368728 999999 0 10737418 10737418 5368722 5368721 5368722 5368723 5368724 5368725 5368726 5368725 
5368709 5368709 5368709 5368709 5368709 5368718 5368717 5368718 5368719 5368729 5368730 5368731 5368730 5368737 5368738 5368739 5368738 5368730 5368731 5368732 5368731 5368728 5368729 5368730 5368729 5368727 5368728 5368729 5368728 5368728 5368729 5368728 5368727 10737418 999999 0 10737418 5368723 5368722 5368723 5368724 5368725 5368726 5368727 5368726 
5368709 5368709 5368709 5368709 5368709 5368719 5368718 5368719 5368720 5368730 5368729 5368730 5368731 5368738 5368737 5368738 5368739 5368731 5368730 5368731 5368732 5368729 5368728 5368729 5368730 5368728 5368727 5368728 5368729 5368729 5368728 5368727 5368728 10737418 10737418 999999 0 5368724 5368723 5368724 5368725 5368726 5368725 5368726 5368727 
5368709 5368709 5368709 5368709 5368709 5368720 5368719 5368718 5368719 5368729 5368728 5368729 5368730 5368737 5368736 5368737 5368738 5368730 5368729 5368730 5368731 5368728 5368727 5368728 5368729 5368727 5368726 5368727 5368728 5368730 5368729 5368728 5368729 0 10737418 10737418 999999 5368723 5368722 5368723 5368724 5368725 5368724 5368725 5368726 
5368709 5368709 5368709 5368709 5368709 5368723 5368724 5368723 5368722 5368728 5368729 5368728 5368727 5368724 5368725 5368726 5368725 5368717 5368718 5368719 5368718 5368715 5368716 5368717 5368716 5368714 5368715 5368716 5368715 5368741 5368742 5368741 5368740 5368724 5368725 5368724 5368723 999999 0 10737418 10737418 5368736 5368737 5368736 5368735 
5368709 5368709 5368709 5368709 5368709 5368722 5368723 5368722 5368721 5368727 5368728 5368729 5368728 5368725 5368726 5368727 5368726 5368718 5368719 5368720 5368719 5368716 5368717 5368718 5368717 5368715 5368716 5368717 5368716 5368740 5368741 5368740 5368739 5368723 5368724 5368723 5368722 10737418 999999 0 10737418 5368735 5368736 5368737 5368736 
5368709 5368709 5368709 5368709 5368709 5368723 5368722 5368721 5368722 5368726 5368727 5368728 5368727 5368726 5368725 5368726 5368727 5368719 5368718 5368719 5368720 5368717 5368716 5368717 5368718 5368716 5368715 5368716 5368717 5368741 5368740 5368739 5368740 5368722 5368723 5368722 5368721 10737418 10737418 999999 0 5368734 5368735 5368736 5368735 
5368709 5368709 5368709 5368709 5368709 5368724 5368723 5368722 5368723 5368727 5368728 5368727 5368726 5368725 5368724 5368725 5368726 5368718 5368717 5368718 5368719 5368716 5368715 5368716 5368717 5368715 5368714 5368715 5368716 5368742 5368741 5368740 5368741 5368723 5368724 5368723 5368722 0 10737418 10737418 999999 5368735 5368736 5368735 5368734 
5368709 5368709 5368709 5368709 5368709 5368731 5368730 5368729 5368730 5368720 5368719 5368718 5368719 5368722 5368721 5368722 5368723 5368737 5368736 5368735 5368736 5368739 5368738 5368737 5368738 5368738 5368737 5368736 5368737 5368743 5368744 5368743 5368742 5368726 5368727 5368726 5368725 5368736 5368735 5368734 5368735 999999 0 10737418 10737418 
5368709 5368709 5368709 5368709 5368709 5368730 5368729 5368730 5368731 5368719 5368718 5368719 5368720 5368723 5368722 5368723 5368724 5368736 5368735 5368736 5368737 5368738 5368737 5368738 5368739 5368737 5368736 5368737 5368738 5368742 5368743 5368742 5368741 5368725 5368726 5368725 5368724 5368735 5368734 5368735 5368736 10737418 999999 0 10737418 
5368709 5368709 5368709 5368709 5368709 5368731 5368730 5368731 5368732 5368720 5368719 5368720 5368721 5368724 5368723 5368724 5368725 5368737 5368736 5368737 5368738 5368739 5368738 5368739 5368740 5368738 5368737 5368738 5368739 5368743 5368742 5368741 5368742 5368726 5368725 5368724 5368725 5368736 5368735 5368736 5368737 10737418 10737418 999999 0 
5368709 5368709 5368709 5368709 5368709 5368732 5368731 5368730 5368731 5368721 5368720 5368719 5368720 5368723 5368722 5368723 5368724 5368738 5368737 5368736 5368737 5368740 5368739 5368738 5368739 5368739 5368738 5368737 5368738 5368744 5368743 5368742 5368743 5368727 5368726 5368725 5368726 5368737 5368736 5368735 5368736 0 10737418 10737418 999999 
EOF
